Solver command line: ['C:\\Program Files\\IBM\\ILOG\\CPLEX_Studio2211\\cplex\\bin\\x64_win64\\cplex.exe']


Welcome to IBM(R) ILOG(R) CPLEX(R) Interactive Optimizer 22.1.1.0
  with Simplex, Mixed Integer & Barrier Optimizers
5725-A06 5725-A29 5724-Y48 5724-Y49 5724-Y54 5724-Y55 5655-Y21
Copyright IBM Corp. 1988, 2022.  All Rights Reserved.

Type 'help' for a list of available commands.
Type 'help' followed by a command name for more
information on commands.

CPLEX> Logfile 'cplex.log' closed.
Logfile 'C:\Users\wangy\Documents\GitHub\re_optimization\result_site_specific\tmpg5fiwymg.cplex.log' open.
CPLEX> Problem 'C:\Users\wangy\Documents\GitHub\re_optimization\result_site_specific\tmpr1ux0prd.pyomo.lp' read.
Read time = 0.31 sec. (9.13 ticks)
CPLEX> Problem name         : C:\Users\wangy\Documents\GitHub\re_optimization\result_site_specific\tmpr1ux0prd.pyomo.lp
Objective sense      : Minimize
Variables            :   65769  [Nneg: 35068,  Free: 8792,  Binary: 9,
                                 Other: 21900]
Objective nonzeros   :      17
Linear constraints   :   87665  [Less: 46741,  Greater: 5,  Equal: 40919]
  Nonzeros           :  225097
  RHS nonzeros       :    3615

Variables            : Min LB: 0.000000         Max UB: 1.000000       
Objective nonzeros   : Min   : 1.000000         Max   : 1.000000       
Linear constraints   :
  Nonzeros           : Min   : 0.001197888      Max   : 100000.0       
  RHS nonzeros       : Min   : 0.04500000       Max   : 100000.0       
CPLEX> Version identifier: 22.1.1.0 | 2022-11-27 | 9160aff4d
Tried aggregator 3 times.
MIP Presolve eliminated 53259 rows and 32817 columns.
Aggregator did 10388 substitutions.
Reduced MIP has 24018 rows, 22564 columns, and 71912 nonzeros.
Reduced MIP has 5 binaries, 0 generals, 0 SOSs, and 0 indicators.
Presolve time = 0.22 sec. (222.57 ticks)
Found incumbent of value 399855.499473 after 0.33 sec. (322.32 ticks)
Probing time = 0.00 sec. (1.25 ticks)
Tried aggregator 1 time.
Detecting symmetries...
Reduced MIP has 24018 rows, 22564 columns, and 71912 nonzeros.
Reduced MIP has 5 binaries, 0 generals, 0 SOSs, and 0 indicators.
Presolve time = 0.05 sec. (43.25 ticks)
Probing time = 0.00 sec. (1.16 ticks)
MIP emphasis: balance optimality and feasibility.
MIP search method: dynamic search.
Parallel mode: deterministic, using up to 16 threads.
Root relaxation solution time = 1.53 sec. (762.30 ticks)

        Nodes                                         Cuts/
   Node  Left     Objective  IInf  Best Integer    Best Bound    ItCnt     Gap

*     0+    0                       399855.4995   -24323.4279           106.08%
      0     0    15194.1279     1   399855.4995    15194.1279       55   96.20%
*     0+    0                        16798.6138    15194.1279             9.55%
*     0+    0                        16362.1941    15194.1279             7.14%
      0     0        cutoff          16362.1941                    705    0.00%
Elapsed time = 2.38 sec. (1631.64 ticks, tree = 0.01 MB, solutions = 3)

Root node processing (before b&c):
  Real time             =    2.38 sec. (1634.81 ticks)
Parallel b&c, 16 threads:
  Real time             =    0.00 sec. (0.00 ticks)
  Sync time (average)   =    0.00 sec.
  Wait time (average)   =    0.00 sec.
                          ------------
Total (root+branch&cut) =    2.38 sec. (1634.81 ticks)

Solution pool: 3 solutions saved.

MIP - Integer optimal solution:  Objective =  1.6362194139e+04
Solution time =    2.39 sec.  Iterations = 705  Nodes = 0
Deterministic time = 1635.00 ticks  (684.10 ticks/sec)

CPLEX> Incumbent solution written to file 'C:\Users\wangy\Documents\GitHub\re_optimization\result_site_specific\tmp7yip7c2q.cplex.sol'.
CPLEX> 
